multiobj/instances/reallike/Ter-rl-7-2-0.80-1.0-1.in
7 2
0 123 17 72 89 90 77 
123 0 116 51 121 48 96 
17 116 0 64 101 90 86 
72 51 64 0 97 39 71 
89 121 101 97 0 73 26 
90 48 90 39 73 0 47 
77 96 86 71 26 47 0 
0 0 0 0 52 0 85 
0 0 20505 68 7307 69 0 
0 20505 0 2 0 0 0 
0 68 2 0 0 30025 0 
52 7307 0 0 0 0 0 
0 69 0 30025 0 0 0 
85 0 0 0 0 0 0 
0 0 0 0 227 0 71 
0 0 1410 344 17593 42 0 
0 1410 0 5 0 0 0 
0 344 5 0 0 60107 7 
227 17593 0 0 0 0 0 
0 42 0 60107 0 0 0 
71 0 0 7 0 0 0 
