multiobj/solutions/reallike/Ter-rl-7-2-0.80-1.0-1.out
3 2
3 6 4 0 5 2 1 
2809390 3858460 
3 6 5 2 4 0 1 
3369724 3210454 
3 6 5 0 4 2 1 
3369742 3205116 
